qbf_easy_train/easy_1183_SAT.qdimacs
p cnf 29 80
a 14 15 0
e 1 2 3 4 5 6 7 8 9 10 11 12 13 16 17 18 19 20 21 22 23 24 25 26 27 28 29 0
-4 -3 0
-4 3 0
-4 -5 -6 0
4 5 -6 0
-4 5 6 0
4 -5 6 0
2 -3 -7 0
-2 3 -7 0
2 3 7 0
-2 -3 7 0
8 -6 0
8 -7 0
6 7 -8 0
-9 -2 0
-9 8 0
2 -8 9 0
10 1 0
10 -9 0
-1 9 -10 0
-13 -11 0
-13 12 0
11 -12 13 0
13 -14 -15 0
-13 14 -15 0
13 14 15 0
-13 -14 15 0
-16 -15 0
-16 -13 0
15 13 16 0
10 16 -17 0
-10 -16 -17 0
10 -16 17 0
-10 16 17 0
3 12 -18 0
-3 -12 -18 0
3 -12 18 0
-3 12 18 0
19 5 0
19 -14 0
-5 14 -19 0
-20 -3 0
-20 4 0
3 -4 20 0
19 20 -21 0
-19 -20 -21 0
19 -20 21 0
-19 20 21 0
-7 4 -22 0
7 -4 -22 0
-7 -4 22 0
7 4 22 0
21 -22 -23 0
-21 22 -23 0
21 22 23 0
-21 -22 23 0
18 -23 -24 0
-18 23 -24 0
18 23 24 0
-18 -23 24 0
2 25 -26 0
-2 -25 -26 0
2 -25 26 0
-2 25 26 0
27 -26 0
27 -25 0
26 25 -27 0
28 24 0
28 -27 0
-24 27 -28 0
-29 -17 0
-29 28 0
17 -28 29 0
-8 29 -16 -21 7 2 0
16 -14 20 -2 -24 0
6 -9 20 0
4 -17 18 14 0
17 -29 -12 2 18 -24 0
-14 -18 1 0
10 -27 -19 0
29 0
