sat_easy_train/easy_1183_SAT.dimacs
p cnf 101 337
-1 2 -3 0
1 -2 -3 0
-1 -2 3 0
1 2 3 0
-4 5 -6 0
4 -5 -6 0
-4 -5 6 0
4 5 6 0
-7 3 0
-7 -6 0
-3 6 7 0
-12 -10 0
-12 -11 0
10 11 12 0
13 9 0
13 12 0
-9 -12 -13 0
14 -8 0
14 13 0
8 -13 -14 0
15 5 0
15 1 0
-5 -1 -15 0
-16 -14 0
-16 -15 0
14 15 16 0
18 -17 0
18 -17 0
17 -18 0
19 18 0
19 6 0
-18 -6 -19 0
19 -2 -20 0
-19 2 -20 0
19 2 20 0
-19 -2 20 0
-16 20 -21 0
16 -20 -21 0
-16 -20 21 0
16 20 21 0
-15 8 -22 0
15 -8 -22 0
-15 -8 22 0
15 8 22 0
21 22 -23 0
-21 -22 -23 0
21 -22 23 0
-21 22 23 0
7 -23 -24 0
-7 23 -24 0
7 23 24 0
-7 -23 24 0
-4 -2 -25 0
4 2 -25 0
-4 2 25 0
4 -2 25 0
25 26 -27 0
-25 -26 -27 0
25 -26 27 0
-25 26 27 0
27 17 -28 0
-27 -17 -28 0
27 -17 28 0
-27 17 28 0
3 28 -29 0
-3 -28 -29 0
3 -28 29 0
-3 28 29 0
24 29 -30 0
-24 -29 -30 0
24 -29 30 0
-24 29 30 0
-17 -3 -31 0
17 3 -31 0
-17 3 31 0
17 -3 31 0
32 1 0
32 -31 0
-1 31 -32 0
9 -1 -33 0
-9 1 -33 0
9 1 33 0
-9 -1 33 0
-34 -33 0
-34 33 0
-35 34 0
-35 -10 0
-34 10 35 0
36 -25 -37 0
-36 25 -37 0
36 25 37 0
-36 -25 37 0
38 -35 0
38 37 0
35 -37 -38 0
39 -4 0
39 6 0
4 -6 -39 0
-39 34 -40 0
39 -34 -40 0
-39 -34 40 0
39 34 40 0
-41 38 0
-41 40 0
-38 -40 41 0
-42 -32 0
-42 41 0
32 -41 42 0
8 13 -43 0
-8 -13 -43 0
8 -13 43 0
-8 13 43 0
4 -1 -44 0
-4 1 -44 0
4 1 44 0
-4 -1 44 0
44 14 -45 0
-44 -14 -45 0
44 -14 45 0
-44 14 45 0
-46 43 0
-46 45 0
-43 -45 46 0
47 10 0
47 33 0
-10 -33 -47 0
48 9 0
48 47 0
-9 -47 -48 0
49 48 0
49 -18 0
-48 18 -49 0
-46 49 -50 0
46 -49 -50 0
-46 -49 50 0
46 49 50 0
42 -50 -51 0
-42 50 -51 0
42 50 51 0
-42 -50 51 0
-52 -30 0
-52 51 0
30 -51 52 0
-54 39 0
-54 -53 0
-39 53 54 0
55 12 0
55 -5 0
-12 5 -55 0
-56 6 0
-56 -18 0
-6 18 56 0
56 57 -58 0
-56 -57 -58 0
56 -57 58 0
-56 57 58 0
-59 55 0
-59 58 0
-55 -58 59 0
-54 -59 -60 0
54 59 -60 0
-54 59 60 0
54 -59 60 0
-61 -5 0
-61 -8 0
5 8 61 0
-63 -61 0
-63 62 0
61 -62 63 0
60 -63 -64 0
-60 63 -64 0
60 63 64 0
-60 -63 64 0
-53 -28 -65 0
53 28 -65 0
-53 28 65 0
53 -28 65 0
-66 25 0
-66 -65 0
-25 65 66 0
67 64 0
67 -66 0
-64 66 -67 0
68 5 0
68 -62 0
-5 62 -68 0
69 -68 0
69 -68 0
68 -69 0
70 9 0
70 62 0
-9 -62 -70 0
71 70 0
71 -19 0
-70 19 -71 0
-72 -15 0
-72 -44 0
15 44 72 0
-71 -72 -73 0
71 72 -73 0
-71 72 73 0
71 -72 73 0
-69 -73 -74 0
69 73 -74 0
-69 73 74 0
69 -73 74 0
-11 -26 -75 0
11 26 -75 0
-11 26 75 0
11 -26 75 0
-17 -4 -76 0
17 4 -76 0
-17 4 76 0
17 -4 76 0
76 2 -77 0
-76 -2 -77 0
76 -2 77 0
-76 2 77 0
77 -78 -79 0
-77 78 -79 0
77 78 79 0
-77 -78 79 0
-80 -75 0
-80 79 0
75 -79 80 0
6 -39 -81 0
-6 39 -81 0
6 39 81 0
-6 -39 81 0
-82 -13 0
-82 -81 0
13 81 82 0
-84 -8 0
-84 83 0
8 -83 84 0
85 -82 0
85 -84 0
82 84 -85 0
86 -28 0
86 -56 0
28 56 -86 0
-87 -70 0
-87 -10 0
70 10 87 0
-88 -87 0
-88 31 0
87 -31 88 0
-89 86 0
-89 88 0
-86 -88 89 0
-85 -89 -90 0
85 89 -90 0
-85 89 90 0
85 -89 90 0
-80 -90 -91 0
80 90 -91 0
-80 90 91 0
80 -90 91 0
74 91 -92 0
-74 -91 -92 0
74 -91 92 0
-74 91 92 0
-93 67 0
-93 -92 0
-67 92 93 0
94 2 0
94 -61 0
-2 61 -94 0
95 -56 0
95 -94 0
56 94 -95 0
-96 -5 0
-96 53 0
5 -53 96 0
-97 17 0
-97 -83 0
-17 83 97 0
96 -97 -98 0
-96 97 -98 0
96 97 98 0
-96 -97 98 0
-99 -95 0
-99 -98 0
95 98 99 0
-93 99 -100 0
93 -99 -100 0
-93 -99 100 0
93 99 100 0
-52 100 -101 0
52 -100 -101 0
-52 -100 101 0
52 100 101 0
-83 -7 0
-13 49 -88 -64 -95 0
68 31 -39 33 -86 0
40 10 90 -26 -29 53 0
-35 -92 -8 0
-81 31 16 -30 91 0
63 -62 0
54 -100 35 48 -1 75 0
14 52 0
-81 -72 -35 0
-23 -70 0
-43 -15 13 83 0
-42 -12 89 -33 49 0
-30 -53 0
99 30 83 -79 0
-7 31 -60 -17 0
30 83 0
37 -92 0
-36 98 -11 0
9 -30 -27 -91 -21 0
2 -32 74 0
-81 69 0
24 -68 55 0
-43 -101 26 -42 -85 0
54 98 70 58 -18 93 0
-33 -60 18 11 -87 0
-88 -42 0
51 -96 15 -86 -74 21 0
-49 62 34 -94 -9 42 0
-4 -74 8 -9 91 -69 0
5 71 79 -87 0
-34 92 94 -37 0
82 47 51 -38 87 -91 0
-50 85 80 -15 0
75 44 -43 0
25 -86 0
-52 5 0
56 54 30 -76 90 99 0
-31 -48 -38 -44 99 0
33 -96 -44 80 0
-45 96 37 53 0
-84 62 -65 -97 60 0
-37 -49 -28 -73 0
-27 52 -77 0
101 0
